results_rootrelaxation/bin012_080_016.srr.sol
solution status: optimal solution found
objective value:                     18.6380952380952
_var711_                            0.523809523809524 	(obj:1)
_var730_                            0.257142857142858 	(obj:2)
_var733_                           0.0190476190476193 	(obj:2)
_var735_                           0.0666666666666665 	(obj:2)
_var738_                            0.209523809523809 	(obj:1)
_var782_                            0.190476190476191 	(obj:1)
_var792_                           0.0571428571428571 	(obj:0)
_var796_                            0.133333333333334 	(obj:3)
_var798_                           0.0476190476190479 	(obj:1)
_var803_                            0.314285714285714 	(obj:0)
_var805_                            0.314285714285714 	(obj:2)
_var809_                           0.0761904761904765 	(obj:1)
_var814_                            0.285714285714286 	(obj:0)
_var819_                            0.457142857142857 	(obj:2)
_var821_                             0.19047619047619 	(obj:1)
_var822_                           0.0285714285714289 	(obj:3)
_var825_                            0.114285714285714 	(obj:1)
_var828_                            0.457142857142856 	(obj:2)
_var832_                            0.266666666666667 	(obj:1)
_var833_                           0.0666666666666666 	(obj:2)
_var834_                            0.523809523809524 	(obj:2)
_var835_                            0.457142857142858 	(obj:1)
_var841_                           0.0666666666666665 	(obj:3)
_var844_                            0.161904761904762 	(obj:2)
_var848_                            0.314285714285714 	(obj:1)
_var849_                           0.0761904761904765 	(obj:2)
_var857_                           0.0190476190476185 	(obj:2)
_var858_                            0.228571428571429 	(obj:2)
_var859_                            0.104761904761905 	(obj:1)
_var864_                            0.257142857142857 	(obj:1)
_var867_                            0.352380952380952 	(obj:1)
_var870_                           0.0476190476190478 	(obj:3)
_var872_                           0.0285714285714284 	(obj:2)
_var874_                             0.19047619047619 	(obj:2)
_var876_                            0.333333333333333 	(obj:2)
_var878_                            0.342857142857143 	(obj:1)
_var880_                           0.0190476190476181 	(obj:1)
_var881_                            0.371428571428571 	(obj:2)
_var884_                            0.219047619047619 	(obj:2)
_var887_                           0.0571428571428574 	(obj:2)
_var890_                           0.0476190476190473 	(obj:2)
_var892_                           0.0666666666666667 	(obj:4)
_var893_                            0.152380952380952 	(obj:2)
_var897_                           0.0952380952380952 	(obj:2)
_var899_                           0.0666666666666667 	(obj:3)
_var900_                            0.238095238095238 	(obj:3)
_var901_                            0.123809523809524 	(obj:3)
_var902_                           0.0761904761904764 	(obj:2)
_var903_                            0.323809523809524 	(obj:3)
_var905_                           0.0857142857142852 	(obj:1)
_var908_                             0.19047619047619 	(obj:3)
_var909_                            0.114285714285715 	(obj:3)
_var910_                            0.352380952380952 	(obj:1)
_var911_                            0.114285714285715 	(obj:1)
_var913_                            0.352380952380952 	(obj:3)
_var914_                           0.0857142857142859 	(obj:3)
_var916_                           0.0190476190476188 	(obj:3)
_var918_                            0.142857142857143 	(obj:2)
_var919_                            0.057142857142858 	(obj:2)
_var924_                           0.0476190476190474 	(obj:3)
