results_rootrelaxation/bin012_080_016.srr.log
SCIP version 8.0.3.5 [precision: 8 byte] [memory: block] [mode: optimized] [LP solver: Soplex 6.0.1.3] [GitHash: 438792519e]
Copyright (c) 2002-2023 Zuse Institute Berlin (ZIB)

External libraries: 
  Readline 8.1         GNU library for command line editing (gnu.org/s/readline)
  Soplex 6.0.1.3       Linear Programming Solver developed at Zuse Institute Berlin (soplex.zib.de) [GitHash: 713be0fe]
  CppAD 20180000.0     Algorithmic Differentiation of C++ algorithms developed by B. Bell (github.com/coin-or/CppAD)
  ZLIB 1.2.11          General purpose compression library by J. Gailly and M. Adler (zlib.net)
  bliss 0.77           Computing Graph Automorphism Groups by T. Junttila and P. Kaski (www.tcs.hut.fi/Software/bliss/)

user parameter file <scip.set> not found - using default parameters

srr/relaxation = TRUE

read problem <instances/bin012_080_016.srr>
============

Original problem: 
original problem has 0 variables (0 bin, 0 int, 0 impl, 0 cont) and 77 constraints

presolving:
presolving (1 rounds: 1 fast, 1 medium, 1 exhaustive):
 0 deleted vars, 0 deleted constraints, 0 added constraints, 0 tightened bounds, 0 added holes, 0 changed sides, 0 changed coefficients
 0 implications, 0 cliques
presolved problem has 0 variables (0 bin, 0 int, 0 impl, 0 cont) and 77 constraints
     77 constraints of type <linear>
Presolving Time: 0.00

 time | node  | left  |LP iter|LP it/n|mem/heur|mdpt |vars |cons |rows |cuts |sepa|confs|strbr|  dualbound   | primalbound  |  gap   | compl. 
  0.0s|     1 |     0 |     1 |     - |   710k |   0 |   1 |  77 |  77 |   0 |  0 |   0 |   0 |      --      |      --      |    Inf | unknown
r 0.0s|     1 |     0 |   928 |     - |simplero|   0 | 676 |  77 |  77 |   0 |  0 |   0 |   0 |      --      | 3.526944e+01 |    Inf | unknown
r 0.0s|     1 |     0 |   963 |     - |simplero|   0 | 687 |  77 |  77 |   0 |  0 |   0 |   0 |      --      | 3.415153e+01 |    Inf | unknown
r 0.0s|     1 |     0 |  1004 |     - |simplero|   0 | 698 |  77 |  77 |   0 |  0 |   0 |   0 |      --      | 3.257124e+01 |    Inf | unknown
r 0.1s|     1 |     0 |  1056 |     - |simplero|   0 | 709 |  77 |  77 |   0 |  0 |   0 |   0 |      --      | 3.121574e+01 |    Inf | unknown
r 0.1s|     1 |     0 |  1127 |     - |simplero|   0 | 720 |  77 |  77 |   0 |  0 |   0 |   0 |      --      | 2.991453e+01 |    Inf | unknown
r 0.1s|     1 |     0 |  1185 |     - |simplero|   0 | 731 |  77 |  77 |   0 |  0 |   0 |   0 |      --      | 2.773322e+01 |    Inf | unknown
r 0.1s|     1 |     0 |  1250 |     - |simplero|   0 | 742 |  77 |  77 |   0 |  0 |   0 |   0 |      --      | 2.656722e+01 |    Inf | unknown
r 0.1s|     1 |     0 |  1281 |     - |simplero|   0 | 753 |  77 |  77 |   0 |  0 |   0 |   0 |      --      | 2.601884e+01 |    Inf | unknown
r 0.1s|     1 |     0 |  1296 |     - |simplero|   0 | 753 |  77 |  77 |   0 |  0 |   0 |   0 |      --      | 2.590595e+01 |    Inf | unknown
r 0.1s|     1 |     0 |  1340 |     - |simplero|   0 | 764 |  77 |  77 |   0 |  0 |   0 |   0 |      --      | 2.472323e+01 |    Inf | unknown
r 0.1s|     1 |     0 |  1364 |     - |simplero|   0 | 764 |  77 |  77 |   0 |  0 |   0 |   0 |      --      | 2.457366e+01 |    Inf | unknown
r 0.1s|     1 |     0 |  1369 |     - |simplero|   0 | 764 |  77 |  77 |   0 |  0 |   0 |   0 |      --      | 2.456639e+01 |    Inf | unknown
r 0.1s|     1 |     0 |  1427 |     - |simplero|   0 | 775 |  77 |  77 |   0 |  0 |   0 |   0 |      --      | 2.392327e+01 |    Inf | unknown
r 0.1s|     1 |     0 |  1438 |     - |simplero|   0 | 775 |  77 |  77 |   0 |  0 |   0 |   0 |      --      | 2.388719e+01 |    Inf | unknown
 time | node  | left  |LP iter|LP it/n|mem/heur|mdpt |vars |cons |rows |cuts |sepa|confs|strbr|  dualbound   | primalbound  |  gap   | compl. 
r 0.1s|     1 |     0 |  1439 |     - |simplero|   0 | 775 |  77 |  77 |   0 |  0 |   0 |   0 |      --      | 2.388718e+01 |    Inf | unknown
r 0.1s|     1 |     0 |  1488 |     - |simplero|   0 | 786 |  77 |  77 |   0 |  0 |   0 |   0 |      --      | 2.277667e+01 |    Inf | unknown
r 0.1s|     1 |     0 |  1497 |     - |simplero|   0 | 786 |  77 |  77 |   0 |  0 |   0 |   0 |      --      | 2.273696e+01 |    Inf | unknown
r 0.1s|     1 |     0 |  1528 |     - |simplero|   0 | 797 |  77 |  77 |   0 |  0 |   0 |   0 |      --      | 2.216373e+01 |    Inf | unknown
r 0.1s|     1 |     0 |  1541 |     - |simplero|   0 | 797 |  77 |  77 |   0 |  0 |   0 |   0 |      --      | 2.203305e+01 |    Inf | unknown
r 0.1s|     1 |     0 |  1568 |     - |simplero|   0 | 808 |  77 |  77 |   0 |  0 |   0 |   0 |      --      | 2.168340e+01 |    Inf | unknown
r 0.1s|     1 |     0 |  1594 |     - |simplero|   0 | 808 |  77 |  77 |   0 |  0 |   0 |   0 |      --      | 2.137395e+01 |    Inf | unknown
r 0.1s|     1 |     0 |  1596 |     - |simplero|   0 | 808 |  77 |  77 |   0 |  0 |   0 |   0 |      --      | 2.137380e+01 |    Inf | unknown
r 0.1s|     1 |     0 |  1622 |     - |simplero|   0 | 819 |  77 |  77 |   0 |  0 |   0 |   0 |      --      | 2.087717e+01 |    Inf | unknown
r 0.1s|     1 |     0 |  1631 |     - |simplero|   0 | 819 |  77 |  77 |   0 |  0 |   0 |   0 |      --      | 2.082245e+01 |    Inf | unknown
r 0.1s|     1 |     0 |  1683 |     - |simplero|   0 | 830 |  77 |  77 |   0 |  0 |   0 |   0 |      --      | 2.030638e+01 |    Inf | unknown
r 0.1s|     1 |     0 |  1723 |     - |simplero|   0 | 841 |  77 |  77 |   0 |  0 |   0 |   0 |      --      | 1.969611e+01 |    Inf | unknown
r 0.1s|     1 |     0 |  1741 |     - |simplero|   0 | 841 |  77 |  77 |   0 |  0 |   0 |   0 |      --      | 1.963582e+01 |    Inf | unknown
r 0.1s|     1 |     0 |  1771 |     - |simplero|   0 | 852 |  77 |  77 |   0 |  0 |   0 |   0 |      --      | 1.943163e+01 |    Inf | unknown
r 0.1s|     1 |     0 |  1787 |     - |simplero|   0 | 852 |  77 |  77 |   0 |  0 |   0 |   0 |      --      | 1.940706e+01 |    Inf | unknown
 time | node  | left  |LP iter|LP it/n|mem/heur|mdpt |vars |cons |rows |cuts |sepa|confs|strbr|  dualbound   | primalbound  |  gap   | compl. 
r 0.1s|     1 |     0 |  1794 |     - |simplero|   0 | 852 |  77 |  77 |   0 |  0 |   0 |   0 |      --      | 1.939858e+01 |    Inf | unknown
r 0.1s|     1 |     0 |  1820 |     - |simplero|   0 | 863 |  77 |  77 |   0 |  0 |   0 |   0 |      --      | 1.930000e+01 |    Inf | unknown
r 0.1s|     1 |     0 |  1838 |     - |simplero|   0 | 863 |  77 |  77 |   0 |  0 |   0 |   0 |      --      | 1.920194e+01 |    Inf | unknown
  0.1s|     1 |     0 |  1838 |     - |  4135k |   0 | 863 |  77 |  77 |   0 |  0 |   0 |   0 |      --      | 1.920194e+01 |    Inf | unknown
r 0.1s|     1 |     0 |  1858 |     - |simplero|   0 | 873 |  77 |  77 |   0 |  0 |   0 |   0 |      --      | 1.909110e+01 |    Inf | unknown
r 0.1s|     1 |     0 |  1860 |     - |simplero|   0 | 873 |  77 |  77 |   0 |  0 |   0 |   0 |      --      | 1.908765e+01 |    Inf | unknown
r 0.1s|     1 |     0 |  1885 |     - |simplero|   0 | 884 |  77 |  77 |   0 |  0 |   0 |   0 |      --      | 1.892878e+01 |    Inf | unknown
r 0.1s|     1 |     0 |  1886 |     - |simplero|   0 | 884 |  77 |  77 |   0 |  0 |   0 |   0 |      --      | 1.892870e+01 |    Inf | unknown
r 0.1s|     1 |     0 |  1908 |     - |simplero|   0 | 894 |  77 |  77 |   0 |  0 |   0 |   0 |      --      | 1.885353e+01 |    Inf | unknown
r 0.1s|     1 |     0 |  1925 |     - |simplero|   0 | 894 |  77 |  77 |   0 |  0 |   0 |   0 |      --      | 1.883086e+01 |    Inf | unknown
r 0.1s|     1 |     0 |  1956 |     - |simplero|   0 | 901 |  77 |  77 |   0 |  0 |   0 |   0 |      --      | 1.874419e+01 |    Inf | unknown
r 0.1s|     1 |     0 |  1981 |     - |simplero|   0 | 909 |  77 |  77 |   0 |  0 |   0 |   0 |      --      | 1.869589e+01 |    Inf | unknown
r 0.1s|     1 |     0 |  1999 |     - |simplero|   0 | 914 |  77 |  77 |   0 |  0 |   0 |   0 |      --      | 1.865909e+01 |    Inf | unknown
r 0.1s|     1 |     0 |  2009 |     - |simplero|   0 | 916 |  77 |  77 |   0 |  0 |   0 |   0 |      --      | 1.865408e+01 |    Inf | unknown
r 0.1s|     1 |     0 |  2019 |     - |simplero|   0 | 920 |  77 |  77 |   0 |  0 |   0 |   0 |      --      | 1.864103e+01 |    Inf | unknown
 time | node  | left  |LP iter|LP it/n|mem/heur|mdpt |vars |cons |rows |cuts |sepa|confs|strbr|  dualbound   | primalbound  |  gap   | compl. 
r 0.1s|     1 |     0 |  2031 |     - |simplero|   0 | 925 |  77 |  77 |   0 |  0 |   0 |   0 |      --      | 1.863810e+01 |    Inf | unknown
  0.1s|     1 |     0 |  2031 |     - |  4442k |   0 | 925 |  77 |  77 |   0 |  0 |   0 |   0 | 1.863810e+01 | 1.863810e+01 |   0.00%| unknown
  0.1s|     1 |     0 |  2031 |     - |  4442k |   0 | 925 |  77 |  77 |   0 |  0 |   0 |   0 | 1.863810e+01 | 1.863810e+01 |   0.00%| unknown

SCIP Status        : problem is solved [optimal solution found]
Solving Time (sec) : 0.10
Solving Nodes      : 1
Primal Bound       : +1.86380952380952e+01 (44 solutions)
Dual Bound         : +1.86380952380952e+01
Gap                : 0.00 %

written transformed problem to file <results_rootrelaxation/bin012_080_016.srr.lp>
written transformed problem to file <results_rootrelaxation/bin012_080_016.srr.cip>

written solution information to file <results_rootrelaxation/bin012_080_016.srr.sol>



